10 33 11
1 1 0 1
1 2 3 2
1 3 5 4 6
1 4 9 7 8
1 5 12 10 11
1 6 14 13 15 16
1 7 20 17 18 19
1 8 23 21 22 24
1 9 28 26 25 27
1 10 30 32 29 31
1
1
1
1
1
1
1
1
1
1
1
1
1
1
1
1
1
1
1
1
1
1
1
1
1
1
1
1
1
1
1
1
1